\Problem name: 

Minimize
OBJROW: 60 x_0_0 + 220 x_0_1 + 300 x_0_2 + 270 x_0_3 + 450 x_0_4 + 95 x_1_0 + 45 x_1_1 + 200 x_1_2 + 260 x_1_3 + 230 x_1_4
 + 450 x_2_0 + 300 x_2_1 + 250 x_2_2 + 100 x_2_3 + 90 x_2_4
Subject To
CAP_0:  x_0_0 + x_0_1 + x_0_2 + x_0_3 + x_0_4 <= 1100
CAP_1:  x_1_0 + x_1_1 + x_1_2 + x_1_3 + x_1_4 <= 1300
CAP_2:  x_2_0 + x_2_1 + x_2_2 + x_2_3 + x_2_4 <= 1100
DEM_0:  x_0_0 + x_1_0 + x_2_0 >= 400
DEM_1:  x_0_1 + x_1_1 + x_2_1 >= 200
DEM_2:  x_0_2 + x_1_2 + x_2_2 >= 900
DEM_3:  x_0_3 + x_1_3 + x_2_3 >= 1200
DEM_4:  x_0_4 + x_1_4 + x_2_4 >= 750
Bounds
End
